120
150
56
46
59
42
58
44
49
50
42
58
48
48
53
52
45
51
55
44
44
60
46
58
47
58
44
48
46
54
50
45
56
53
46
49
55
41
42
54
60
46
54
60
47
58
49
44
54
44
52
52
54
50
55
54
52
45
40
51
45
54
60
45
46
52
52
51
46
48
45
56
44
50
54
54
44
57
46
60
48
47
48
48
54
60
47
43
42
50
46
55
46
55
51
54
49
44
46
46
58
53
49
48
43
42
46
46
58
53
50
47
50
43
57
42
42
56
56
45
52
49
